NAME: cum180.tsp
TYPE: TSP
COMMENT: User-generated TSP file
DIMENSION: 900
EDGE_WEIGHT_TYPE: EUC_2D
NODE_COORD_SECTION
1 848.0 515.0
2 519.0 640.0
3 8.0 314.0
4 233.0 578.0
5 649.0 310.0
6 861.0 648.0
7 215.0 389.0
8 389.0 282.0
9 164.0 816.0
10 661.0 621.0
11 613.0 240.0
12 618.0 40.0
13 430.0 508.0
14 530.0 51.0
15 491.0 636.0
16 452.0 557.0
17 257.0 674.0
18 860.0 83.0
19 664.0 796.0
20 706.0 369.0
21 627.0 282.0
22 478.0 653.0
23 750.0 476.0
24 527.0 228.0
25 430.0 615.0
26 720.0 462.0
27 834.0 566.0
28 417.0 242.0
29 900.0 213.0
30 375.0 328.0
31 481.0 367.0
32 288.0 840.0
33 68.0 77.0
34 278.0 20.0
35 724.0 325.0
36 547.0 370.0
37 432.0 402.0
38 25.0 232.0
39 447.0 252.0
40 129.0 708.0
41 112.0 50.0
42 792.0 269.0
43 361.0 838.0
44 383.0 515.0
45 11.0 684.0
46 369.0 724.0
47 562.0 374.0
48 253.0 201.0
49 596.0 558.0
50 299.0 467.0
51 185.0 284.0
52 249.0 719.0
53 258.0 504.0
54 363.0 329.0
55 200.0 710.0
56 704.0 372.0
57 662.0 595.0
58 635.0 708.0
59 382.0 707.0
60 77.0 590.0
61 790.0 44.0
62 167.0 164.0
63 793.0 503.0
64 460.0 885.0
65 535.0 809.0
66 845.0 342.0
67 717.0 327.0
68 743.0 879.0
69 621.0 285.0
70 870.0 758.0
71 846.0 221.0
72 137.0 781.0
73 25.0 167.0
74 853.0 432.0
75 103.0 898.0
76 234.0 239.0
77 168.0 797.0
78 886.0 461.0
79 394.0 326.0
80 686.0 203.0
81 145.0 736.0
82 55.0 883.0
83 25.0 619.0
84 292.0 643.0
85 861.0 732.0
86 550.0 510.0
87 287.0 643.0
88 747.0 206.0
89 156.0 593.0
90 438.0 685.0
91 241.0 111.0
92 737.0 423.0
93 877.0 12.0
94 657.0 619.0
95 27.0 827.0
96 608.0 231.0
97 802.0 779.0
98 8.0 814.0
99 751.0 566.0
100 825.0 757.0
101 705.0 748.0
102 882.0 427.0
103 508.0 683.0
104 737.0 186.0
105 763.0 151.0
106 876.0 307.0
107 410.0 739.0
108 276.0 119.0
109 389.0 604.0
110 330.0 18.0
111 69.0 610.0
112 721.0 56.0
113 530.0 111.0
114 447.0 348.0
115 668.0 21.0
116 154.0 375.0
117 415.0 248.0
118 83.0 237.0
119 676.0 226.0
120 452.0 173.0
121 633.0 386.0
122 183.0 379.0
123 594.0 768.0
124 767.0 346.0
125 120.0 885.0
126 671.0 799.0
127 72.0 426.0
128 450.0 384.0
129 401.0 337.0
130 261.0 188.0
131 779.0 798.0
132 773.0 724.0
133 272.0 107.0
134 300.0 86.0
135 792.0 866.0
136 579.0 358.0
137 85.0 497.0
138 554.0 628.0
139 668.0 495.0
140 886.0 653.0
141 534.0 345.0
142 817.0 737.0
143 3.0 820.0
144 600.0 240.0
145 429.0 718.0
146 342.0 389.0
147 631.0 87.0
148 630.0 733.0
149 97.0 153.0
150 272.0 793.0
151 457.0 40.0
152 22.0 471.0
153 357.0 82.0
154 675.0 121.0
155 157.0 77.0
156 300.0 847.0
157 863.0 163.0
158 180.0 266.0
159 29.0 637.0
160 376.0 596.0
161 894.0 38.0
162 790.0 727.0
163 115.0 666.0
164 453.0 306.0
165 699.0 402.0
166 537.0 89.0
167 649.0 738.0
168 628.0 211.0
169 376.0 286.0
170 753.0 821.0
171 403.0 154.0
172 258.0 654.0
173 362.0 292.0
174 79.0 199.0
175 806.0 201.0
176 392.0 103.0
177 591.0 743.0
178 858.0 481.0
179 419.0 877.0
180 77.0 621.0
181 662.0 872.0
182 86.0 561.0
183 428.0 381.0
184 878.0 353.0
185 516.0 584.0
186 467.0 342.0
187 292.0 191.0
188 702.0 577.0
189 414.0 589.0
190 787.0 66.0
191 714.0 66.0
192 543.0 781.0
193 741.0 100.0
194 310.0 631.0
195 509.0 718.0
196 41.0 274.0
197 331.0 806.0
198 787.0 838.0
199 622.0 451.0
200 1.0 160.0
201 697.0 66.0
202 179.0 72.0
203 833.0 51.0
204 628.0 420.0
205 756.0 81.0
206 38.0 6.0
207 459.0 247.0
208 896.0 303.0
209 347.0 306.0
210 171.0 741.0
211 294.0 482.0
212 167.0 786.0
213 643.0 334.0
214 548.0 795.0
215 330.0 751.0
216 337.0 688.0
217 75.0 220.0
218 777.0 424.0
219 396.0 811.0
220 652.0 473.0
221 877.0 76.0
222 499.0 391.0
223 43.0 570.0
224 229.0 576.0
225 820.0 716.0
226 769.0 721.0
227 646.0 863.0
228 285.0 153.0
229 151.0 311.0
230 371.0 394.0
231 845.0 28.0
232 663.0 61.0
233 881.0 452.0
234 260.0 832.0
235 480.0 860.0
236 617.0 314.0
237 66.0 682.0
238 272.0 820.0
239 249.0 189.0
240 90.0 839.0
241 349.0 587.0
242 538.0 780.0
243 109.0 124.0
244 105.0 403.0
245 52.0 376.0
246 442.0 511.0
247 384.0 316.0
248 857.0 119.0
249 298.0 310.0
250 835.0 265.0
251 404.0 529.0
252 808.0 559.0
253 61.0 853.0
254 419.0 628.0
255 117.0 829.0
256 379.0 425.0
257 504.0 106.0
258 826.0 367.0
259 875.0 608.0
260 61.0 302.0
261 234.0 232.0
262 406.0 205.0
263 614.0 884.0
264 725.0 44.0
265 196.0 663.0
266 759.0 74.0
267 69.0 174.0
268 93.0 272.0
269 273.0 631.0
270 89.0 339.0
271 605.0 328.0
272 299.0 803.0
273 111.0 47.0
274 478.0 176.0
275 55.0 410.0
276 253.0 198.0
277 651.0 11.0
278 15.0 800.0
279 360.0 373.0
280 91.0 861.0
281 847.0 635.0
282 553.0 822.0
283 893.0 152.0
284 477.0 612.0
285 839.0 223.0
286 338.0 215.0
287 871.0 618.0
288 776.0 751.0
289 610.0 667.0
290 70.0 764.0
291 340.0 544.0
292 190.0 394.0
293 117.0 731.0
294 719.0 321.0
295 110.0 385.0
296 734.0 573.0
297 378.0 592.0
298 26.0 701.0
299 692.0 724.0
300 757.0 685.0
301 224.0 454.0
302 899.0 628.0
303 481.0 469.0
304 287.0 870.0
305 40.0 163.0
306 503.0 227.0
307 405.0 589.0
308 282.0 565.0
309 102.0 529.0
310 537.0 408.0
311 562.0 461.0
312 885.0 345.0
313 655.0 630.0
314 211.0 879.0
315 700.0 558.0
316 848.0 79.0
317 160.0 71.0
318 727.0 855.0
319 418.0 289.0
320 657.0 389.0
321 646.0 739.0
322 128.0 171.0
323 642.0 574.0
324 742.0 466.0
325 118.0 845.0
326 883.0 258.0
327 311.0 394.0
328 584.0 764.0
329 852.0 654.0
330 506.0 493.0
331 129.0 202.0
332 671.0 754.0
333 537.0 612.0
334 23.0 267.0
335 318.0 493.0
336 615.0 304.0
337 641.0 666.0
338 282.0 230.0
339 603.0 65.0
340 500.0 189.0
341 818.0 358.0
342 189.0 120.0
343 879.0 344.0
344 637.0 165.0
345 170.0 251.0
346 522.0 241.0
347 736.0 306.0
348 779.0 24.0
349 607.0 264.0
350 465.0 25.0
351 747.0 203.0
352 95.0 582.0
353 242.0 150.0
354 658.0 23.0
355 220.0 725.0
356 43.0 708.0
357 898.0 232.0
358 655.0 154.0
359 20.0 503.0
360 171.0 198.0
361 519.0 679.0
362 483.0 255.0
363 545.0 777.0
364 427.0 244.0
365 260.0 595.0
366 638.0 232.0
367 656.0 614.0
368 676.0 52.0
369 899.0 268.0
370 728.0 103.0
371 305.0 814.0
372 591.0 888.0
373 89.0 607.0
374 355.0 700.0
375 114.0 619.0
376 744.0 247.0
377 415.0 542.0
378 618.0 661.0
379 442.0 643.0
380 154.0 688.0
381 253.0 776.0
382 261.0 196.0
383 463.0 35.0
384 290.0 870.0
385 880.0 313.0
386 313.0 748.0
387 99.0 261.0
388 641.0 740.0
389 255.0 866.0
390 811.0 247.0
391 769.0 853.0
392 583.0 38.0
393 216.0 350.0
394 569.0 166.0
395 387.0 521.0
396 88.0 114.0
397 560.0 859.0
398 172.0 29.0
399 702.0 162.0
400 335.0 342.0
401 561.0 444.0
402 318.0 642.0
403 622.0 840.0
404 617.0 42.0
405 688.0 514.0
406 796.0 735.0
407 899.0 771.0
408 420.0 306.0
409 285.0 45.0
410 243.0 97.0
411 506.0 21.0
412 434.0 106.0
413 230.0 615.0
414 534.0 73.0
415 485.0 513.0
416 75.0 475.0
417 637.0 224.0
418 241.0 9.0
419 650.0 20.0
420 559.0 653.0
421 750.0 375.0
422 99.0 466.0
423 869.0 20.0
424 543.0 399.0
425 636.0 104.0
426 65.0 478.0
427 183.0 34.0
428 756.0 31.0
429 895.0 655.0
430 447.0 626.0
431 485.0 428.0
432 867.0 69.0
433 258.0 538.0
434 892.0 503.0
435 819.0 245.0
436 824.0 99.0
437 472.0 698.0
438 155.0 633.0
439 670.0 738.0
440 685.0 736.0
441 16.0 846.0
442 584.0 96.0
443 63.0 210.0
444 362.0 344.0
445 112.0 899.0
446 140.0 227.0
447 738.0 1.0
448 149.0 585.0
449 205.0 175.0
450 327.0 599.0
451 496.0 59.0
452 452.0 210.0
453 644.0 306.0
454 146.0 105.0
455 483.0 143.0
456 661.0 56.0
457 20.0 117.0
458 661.0 715.0
459 886.0 122.0
460 342.0 467.0
461 646.0 565.0
462 317.0 612.0
463 270.0 447.0
464 757.0 462.0
465 76.0 629.0
466 826.0 540.0
467 771.0 135.0
468 811.0 288.0
469 57.0 811.0
470 635.0 822.0
471 28.0 657.0
472 704.0 44.0
473 361.0 310.0
474 495.0 420.0
475 481.0 683.0
476 247.0 413.0
477 600.0 410.0
478 800.0 348.0
479 383.0 74.0
480 538.0 545.0
481 306.0 426.0
482 265.0 431.0
483 451.0 177.0
484 348.0 780.0
485 600.0 730.0
486 55.0 87.0
487 619.0 841.0
488 228.0 503.0
489 242.0 164.0
490 603.0 153.0
491 298.0 5.0
492 530.0 509.0
493 228.0 697.0
494 93.0 238.0
495 351.0 284.0
496 115.0 614.0
497 498.0 637.0
498 350.0 769.0
499 91.0 474.0
500 733.0 312.0
501 740.0 665.0
502 552.0 303.0
503 594.0 204.0
504 533.0 654.0
505 7.0 309.0
506 413.0 352.0
507 456.0 467.0
508 539.0 315.0
509 328.0 767.0
510 807.0 200.0
511 477.0 243.0
512 250.0 518.0
513 536.0 263.0
514 899.0 504.0
515 794.0 761.0
516 768.0 693.0
517 837.0 263.0
518 198.0 208.0
519 372.0 468.0
520 351.0 884.0
521 379.0 143.0
522 381.0 370.0
523 735.0 877.0
524 898.0 460.0
525 425.0 534.0
526 734.0 116.0
527 286.0 834.0
528 288.0 483.0
529 318.0 159.0
530 195.0 146.0
531 502.0 751.0
532 654.0 194.0
533 423.0 406.0
534 462.0 411.0
535 817.0 757.0
536 632.0 224.0
537 829.0 159.0
538 626.0 297.0
539 833.0 767.0
540 718.0 80.0
541 137.0 31.0
542 10.0 662.0
543 339.0 392.0
544 362.0 545.0
545 459.0 816.0
546 2.0 376.0
547 187.0 782.0
548 7.0 831.0
549 609.0 369.0
550 550.0 351.0
551 225.0 315.0
552 619.0 104.0
553 700.0 877.0
554 428.0 205.0
555 516.0 197.0
556 293.0 334.0
557 495.0 549.0
558 86.0 501.0
559 462.0 156.0
560 445.0 764.0
561 386.0 323.0
562 437.0 363.0
563 225.0 129.0
564 191.0 27.0
565 547.0 612.0
566 558.0 393.0
567 381.0 546.0
568 565.0 467.0
569 505.0 850.0
570 699.0 465.0
571 95.0 158.0
572 900.0 229.0
573 867.0 863.0
574 361.0 599.0
575 382.0 96.0
576 704.0 63.0
577 172.0 807.0
578 280.0 499.0
579 512.0 887.0
580 313.0 571.0
581 81.0 363.0
582 254.0 809.0
583 358.0 417.0
584 633.0 710.0
585 233.0 490.0
586 530.0 694.0
587 367.0 489.0
588 883.0 142.0
589 39.0 473.0
590 85.0 97.0
591 658.0 5.0
592 864.0 557.0
593 5.0 50.0
594 293.0 477.0
595 574.0 744.0
596 166.0 639.0
597 387.0 179.0
598 64.0 730.0
599 627.0 216.0
600 633.0 268.0
601 861.0 236.0
602 417.0 334.0
603 554.0 345.0
604 381.0 827.0
605 118.0 796.0
606 40.0 47.0
607 14.0 808.0
608 764.0 37.0
609 224.0 166.0
610 694.0 230.0
611 148.0 255.0
612 246.0 348.0
613 416.0 613.0
614 843.0 17.0
615 680.0 368.0
616 840.0 282.0
617 447.0 177.0
618 687.0 693.0
619 817.0 145.0
620 69.0 427.0
621 701.0 375.0
622 406.0 129.0
623 4.0 12.0
624 703.0 498.0
625 137.0 62.0
626 573.0 847.0
627 638.0 490.0
628 722.0 486.0
629 711.0 430.0
630 67.0 92.0
631 617.0 508.0
632 764.0 670.0
633 472.0 33.0
634 271.0 534.0
635 155.0 83.0
636 208.0 97.0
637 874.0 845.0
638 875.0 405.0
639 648.0 233.0
640 812.0 405.0
641 84.0 785.0
642 4.0 204.0
643 99.0 254.0
644 495.0 22.0
645 292.0 523.0
646 457.0 679.0
647 788.0 763.0
648 652.0 5.0
649 323.0 845.0
650 883.0 164.0
651 734.0 427.0
652 147.0 714.0
653 74.0 138.0
654 537.0 80.0
655 763.0 747.0
656 51.0 320.0
657 303.0 453.0
658 731.0 335.0
659 1.0 821.0
660 180.0 823.0
661 260.0 569.0
662 283.0 568.0
663 379.0 273.0
664 604.0 52.0
665 616.0 282.0
666 228.0 521.0
667 135.0 129.0
668 784.0 443.0
669 882.0 684.0
670 443.0 474.0
671 868.0 120.0
672 403.0 406.0
673 229.0 704.0
674 346.0 252.0
675 424.0 27.0
676 792.0 404.0
677 89.0 282.0
678 806.0 348.0
679 188.0 412.0
680 649.0 140.0
681 174.0 798.0
682 795.0 566.0
683 122.0 86.0
684 75.0 247.0
685 898.0 794.0
686 836.0 485.0
687 5.0 61.0
688 799.0 207.0
689 828.0 248.0
690 119.0 527.0
691 677.0 528.0
692 52.0 864.0
693 775.0 84.0
694 38.0 16.0
695 338.0 571.0
696 185.0 624.0
697 384.0 452.0
698 24.0 794.0
699 794.0 831.0
700 651.0 390.0
701 558.0 682.0
702 573.0 830.0
703 113.0 330.0
704 52.0 58.0
705 352.0 771.0
706 620.0 834.0
707 482.0 245.0
708 828.0 787.0
709 325.0 432.0
710 218.0 296.0
711 180.0 30.0
712 516.0 444.0
713 201.0 91.0
714 17.0 618.0
715 523.0 854.0
716 876.0 539.0
717 297.0 892.0
718 872.0 780.0
719 193.0 607.0
720 591.0 722.0
721 863.0 292.0
722 729.0 642.0
723 494.0 117.0
724 197.0 702.0
725 750.0 623.0
726 662.0 230.0
727 325.0 523.0
728 641.0 272.0
729 756.0 816.0
730 501.0 806.0
731 777.0 26.0
732 23.0 441.0
733 64.0 795.0
734 769.0 110.0
735 220.0 569.0
736 142.0 250.0
737 284.0 631.0
738 681.0 748.0
739 522.0 676.0
740 251.0 605.0
741 309.0 582.0
742 265.0 257.0
743 658.0 603.0
744 838.0 451.0
745 94.0 434.0
746 473.0 252.0
747 252.0 822.0
748 106.0 222.0
749 859.0 793.0
750 531.0 375.0
751 292.0 192.0
752 74.0 617.0
753 54.0 272.0
754 305.0 707.0
755 311.0 601.0
756 182.0 892.0
757 623.0 697.0
758 670.0 364.0
759 311.0 62.0
760 463.0 224.0
761 266.0 338.0
762 266.0 862.0
763 702.0 67.0
764 191.0 444.0
765 26.0 566.0
766 385.0 877.0
767 316.0 629.0
768 433.0 573.0
769 17.0 41.0
770 535.0 520.0
771 505.0 131.0
772 558.0 306.0
773 155.0 264.0
774 767.0 194.0
775 725.0 740.0
776 748.0 228.0
777 579.0 240.0
778 128.0 58.0
779 503.0 657.0
780 658.0 494.0
781 772.0 302.0
782 274.0 89.0
783 191.0 389.0
784 58.0 648.0
785 867.0 123.0
786 110.0 190.0
787 843.0 367.0
788 769.0 758.0
789 575.0 600.0
790 753.0 82.0
791 501.0 556.0
792 297.0 842.0
793 243.0 75.0
794 674.0 759.0
795 514.0 716.0
796 857.0 436.0
797 133.0 511.0
798 378.0 564.0
799 449.0 720.0
800 47.0 70.0
801 398.0 231.0
802 255.0 151.0
803 730.0 55.0
804 314.0 335.0
805 752.0 861.0
806 414.0 116.0
807 458.0 826.0
808 497.0 753.0
809 173.0 64.0
810 406.0 121.0
811 480.0 761.0
812 784.0 713.0
813 141.0 176.0
814 447.0 135.0
815 126.0 586.0
816 590.0 653.0
817 630.0 455.0
818 874.0 652.0
819 744.0 614.0
820 152.0 578.0
821 264.0 94.0
822 853.0 669.0
823 748.0 380.0
824 195.0 748.0
825 72.0 874.0
826 140.0 867.0
827 545.0 700.0
828 85.0 540.0
829 497.0 46.0
830 63.0 730.0
831 84.0 766.0
832 175.0 267.0
833 872.0 86.0
834 300.0 522.0
835 499.0 98.0
836 116.0 731.0
837 887.0 131.0
838 599.0 399.0
839 78.0 136.0
840 328.0 897.0
841 863.0 359.0
842 127.0 530.0
843 897.0 553.0
844 109.0 275.0
845 419.0 93.0
846 765.0 188.0
847 688.0 761.0
848 304.0 510.0
849 727.0 387.0
850 245.0 220.0
851 582.0 388.0
852 344.0 193.0
853 509.0 208.0
854 889.0 858.0
855 272.0 849.0
856 537.0 555.0
857 486.0 786.0
858 768.0 411.0
859 330.0 401.0
860 286.0 758.0
861 602.0 562.0
862 222.0 440.0
863 4.0 500.0
864 555.0 171.0
865 538.0 295.0
866 611.0 648.0
867 432.0 632.0
868 895.0 624.0
869 162.0 597.0
870 794.0 280.0
871 84.0 13.0
872 179.0 377.0
873 786.0 21.0
874 427.0 170.0
875 815.0 810.0
876 534.0 302.0
877 642.0 824.0
878 15.0 658.0
879 451.0 460.0
880 31.0 528.0
881 329.0 569.0
882 3.0 235.0
883 867.0 265.0
884 92.0 83.0
885 362.0 829.0
886 437.0 74.0
887 729.0 171.0
888 562.0 219.0
889 152.0 221.0
890 3.0 400.0
891 265.0 492.0
892 68.0 693.0
893 24.0 272.0
894 565.0 723.0
895 30.0 481.0
896 629.0 130.0
897 422.0 418.0
898 256.0 119.0
899 127.0 44.0
900 338.0 849.0
EOF

